Solver command line: ['C:\\gurobi1002\\win64\\bin\\gurobi.bat']

Set parameter Username
Academic license - for non-commercial use only - expires 2024-08-20
Read LP format model from file C:\Users\mhafeman\AppData\Local\Temp\tmpr3_g46p3.pyomo.lp
Reading time = 0.04 seconds
obj: 8066 rows, 7055 columns, 18635 nonzeros
Gurobi Optimizer version 10.0.2 build v10.0.2rc0 (win64)

CPU model: AMD Ryzen 7 3800X 8-Core Processor, instruction set [SSE2|AVX|AVX2]
Thread count: 8 physical cores, 16 logical processors, using up to 16 threads

Optimize a model with 8066 rows, 7055 columns and 18635 nonzeros
Model fingerprint: 0xb13b5a63
Model has 335 quadratic constraints
Variable types: 5712 continuous, 1343 integer (1008 binary)
Coefficient statistics:
  Matrix range     [1e-04, 3e+02]
  QMatrix range    [1e+00, 1e+00]
  QLMatrix range   [3e+00, 3e+00]
  Objective range  [4e+01, 4e+02]
  Bounds range     [1e+00, 3e+00]
  RHS range        [3e-03, 1e+03]
Presolve removed 6601 rows and 5576 columns
Presolve time: 0.03s
Presolved: 1773 rows, 1556 columns, 4768 nonzeros
Variable types: 824 continuous, 732 integer (732 binary)
Found heuristic solution: objective 2337490.3488
Found heuristic solution: objective 2321790.3488

Root relaxation: objective 7.314800e+05, 407 iterations, 0.00 seconds (0.00 work units)

    Nodes    |    Current Node    |     Objective Bounds      |     Work
 Expl Unexpl |  Obj  Depth IntInf | Incumbent    BestBd   Gap | It/Node Time

     0     0 731479.972    0    2 2321790.35 731479.972  68.5%     -    0s
H    0     0                    732280.97170 731479.972  0.11%     -    0s
H    0     0                    731479.97170 731479.972  0.00%     -    0s

Cutting planes:
  Cover: 1
  Implied bound: 1

Explored 1 nodes (591 simplex iterations) in 0.06 seconds (0.05 work units)
Thread count was 16 (of 16 available processors)

Solution count 4: 731480 732281 2.32179e+06 2.33749e+06 

Optimal solution found (tolerance 1.00e-04)
Best objective 7.314799717010e+05, best bound 7.314799717010e+05, gap 0.0000%

